\ LP format - for model browsing. Use MPS format to capture full model detail.
Maximize
  - 111.1578947368421 C157 + 111.1578947368421 C158 + 111.1578947368421 C159
   + 111.1578947368421 C160 + 111.1578947368421 C161
   + 111.1578947368421 C162 - 111.1578947368421 C163
   - 111.1578947368421 C164 + 111.1578947368421 C165
   - 111.1578947368421 C166 + 111.1578947368421 C167
   + 111.1578947368421 C168 + 111.1578947368421 C169
   - 111.1578947368421 C170 + 111.1578947368421 C171
   + 111.1578947368421 C172 + 111.1578947368421 C173
   - 111.1578947368421 C174 + 111.1578947368421 C175
   + 111.1578947368421 C176 - 111.1578947368421 C177
   - 111.1578947368421 C178 + 111.1578947368421 C179
   - 111.1578947368421 C180 - 111.1578947368421 C181
   - 111.1578947368421 C182 - 111.1578947368421 C183
   - 111.1578947368421 C184 - 111.1578947368421 C185
   - 111.1578947368421 C186 + 111.1578947368421 C187
   + 111.1578947368421 C188 + 111.1578947368421 C189
   + 1667.368421052632 Constant
Subject To
 R114: C157 + C158 + C159 + C160 <= 1
 R115: C161 + C162 + C163 <= 1
 R116: C164 + C165 <= 1
 R117: C166 + C167 + C168 + C169 + C171 <= 1
 R118: - 230 C166 - 200 C172 - 400 C173 <= -5
 R119: 300 C159 + 300 C160 + 285 C161 + 285 C162 + 265 C164 + 265 C165
   + 230 C168 + 230 C169 + 190 C170 + 200 C178 + 400 C179 + 200 C180
   + 400 C181 + 200 C182 + 400 C183 + 200 C184 + 400 C185 + 200 C186
   + 400 C187 <= 2700
 R120: - 300 C159 - 300 C160 - 285 C161 - 285 C162 - 265 C164 - 265 C165
   - 230 C168 - 230 C169 - 190 C170 - 200 C178 - 400 C179 - 200 C180
   - 400 C181 - 200 C182 - 400 C183 - 200 C184 - 400 C185 - 200 C186
   - 400 C187 <= -2600
 R121: - 300 C160 - 200 C186 - 400 C187 <= -100
 R122: - 300 C157 - 285 C162 - 265 C165 - 190 C170 - 200 C182 - 400 C183
   <= -900
 R123: - 300 C157 - 300 C159 - 285 C162 - 265 C165 - 230 C169 - 190 C170
   - 200 C182 - 400 C183 - 200 C184 - 400 C185 <= -1656
 R124: - 285 C161 - 265 C164 - 230 C167 - 200 C178 - 400 C179 <= -335
 R125: - 285 C161 - 265 C164 - 230 C167 - 230 C168 - 200 C178 - 400 C179
   - 200 C180 - 400 C181 <= -1026
 R126: - 300 C158 - 200 C174 - 400 C175 <= -5
 R127: - 300 C158 - 200 C174 - 400 C175 - 200 C176 - 400 C177 <= -500
 R128: - 285 C163 - 200 C188 - 400 C189 <= -270
 R15: - C157 + C158 + C159 + C160 + C161 + C162 - C163 - C164 + C165 - C166
   + C167 + C168 + C169 - C170 + C171 + C172 + C173 - C174 + C175 + C176
   - C177 - C178 + C179 - C180 - C181 - C182 - C183 - C184 - C185 - C186
   + C187 + C188 + C189 >= -14
Bounds
 Constant = 1
Binaries
 C157 C158 C159 C160 C161 C162 C163 C164 C165 C166 C167 C168 C169 C170 C171
 C172 C173 C174 C175 C176 C177 C178 C179 C180 C181 C182 C183 C184 C185 C186
 C187 C188 C189
End
